set Regions := 1 2 3 4 5 6 7;
set CandSites := Sanford Altamonte Apopka Casselberry Maitland;


param Coverage:

			Sanford Altamonte Apopka Casselberry Maitland:=

1				1		0		1		0			0
2				1		1		0		1			1
3				0		1		0		1			0
4				0		0		1		0			1
5				1		1		0		0			0
6				0		0		1		0			1
7				0		0		0		1			1;


param OpeningCost:=
Sanford		450
Altamonte	650
Apopka		550
Casselberry	500
Maitland	525
;